
Gurobi 6.5.2 (linux64) logging started Sun Jun 11 16:59:04 2017


Gurobi 6.5.2 (linux64) logging started Sun Jun 11 16:59:38 2017


Gurobi 6.5.2 (linux64) logging started Sun Jun 11 16:59:51 2017


Gurobi 6.5.2 (linux64) logging started Sun Jun 11 16:59:53 2017


Gurobi 6.5.2 (linux64) logging started Sun Jun 11 16:59:54 2017


Gurobi 6.5.2 (linux64) logging started Sun Jun 11 16:59:55 2017


Gurobi 6.5.2 (linux64) logging started Sun Jun 11 17:00:02 2017


Gurobi 6.5.2 (linux64) logging started Sun Jun 11 17:00:03 2017


Gurobi 6.5.2 (linux64) logging started Sun Jun 11 17:00:05 2017


Gurobi 6.5.2 (linux64) logging started Sun Jun 11 17:00:06 2017


Gurobi 6.5.2 (linux64) logging started Sun Jun 11 17:00:17 2017


Gurobi 6.5.2 (linux64) logging started Sun Jun 11 17:00:18 2017


Gurobi 6.5.2 (linux64) logging started Sun Jun 11 17:00:19 2017


Gurobi 6.5.2 (linux64) logging started Sun Jun 11 17:00:20 2017


Gurobi 6.5.2 (linux64) logging started Sun Jun 11 17:00:20 2017


Gurobi 6.5.2 (linux64) logging started Sun Jun 11 17:00:21 2017


Gurobi 6.5.2 (linux64) logging started Sun Jun 11 17:00:22 2017


Gurobi 6.5.2 (linux64) logging started Sun Jun 11 17:00:22 2017


Gurobi 6.5.2 (linux64) logging started Sun Jun 11 17:00:23 2017


Gurobi 6.5.2 (linux64) logging started Sun Jun 11 17:00:23 2017


Gurobi 6.5.2 (linux64) logging started Sun Jun 11 17:00:24 2017


Gurobi 6.5.2 (linux64) logging started Sun Jun 11 17:00:24 2017


Gurobi 6.5.2 (linux64) logging started Sun Jun 11 17:00:25 2017


Gurobi 6.5.2 (linux64) logging started Sun Jun 11 17:00:25 2017


Gurobi 6.5.2 (linux64) logging started Sun Jun 11 17:00:26 2017


Gurobi 6.5.2 (linux64) logging started Sun Jun 11 17:00:26 2017


Gurobi 6.5.2 (linux64) logging started Sun Jun 11 17:00:27 2017


Gurobi 6.5.2 (linux64) logging started Sun Jun 11 17:00:28 2017


Gurobi 6.5.2 (linux64) logging started Sun Jun 11 17:00:29 2017


Gurobi 6.5.2 (linux64) logging started Sun Jun 11 17:00:29 2017


Gurobi 6.5.2 (linux64) logging started Sun Jun 11 17:00:30 2017


Gurobi 6.5.2 (linux64) logging started Sun Jun 11 17:00:30 2017


Gurobi 6.5.2 (linux64) logging started Sun Jun 11 17:00:31 2017


Gurobi 6.5.2 (linux64) logging started Sun Jun 11 17:00:32 2017


Gurobi 6.5.2 (linux64) logging started Sun Jun 11 17:00:32 2017


Gurobi 6.5.2 (linux64) logging started Sun Jun 11 17:00:33 2017


Gurobi 6.5.2 (linux64) logging started Sun Jun 11 17:00:33 2017


Gurobi 6.5.2 (linux64) logging started Sun Jun 11 17:00:34 2017


Gurobi 6.5.2 (linux64) logging started Sun Jun 11 17:00:35 2017


Gurobi 6.5.2 (linux64) logging started Sun Jun 11 17:00:35 2017


Gurobi 6.5.2 (linux64) logging started Sun Jun 11 17:00:36 2017


Gurobi 6.5.2 (linux64) logging started Sun Jun 11 17:00:36 2017


Gurobi 6.5.2 (linux64) logging started Sun Jun 11 17:00:37 2017


Gurobi 6.5.2 (linux64) logging started Sun Jun 11 17:00:38 2017


Gurobi 6.5.2 (linux64) logging started Sun Jun 11 17:00:39 2017


Gurobi 6.5.2 (linux64) logging started Sun Jun 11 17:00:39 2017


Gurobi 6.5.2 (linux64) logging started Sun Jun 11 17:00:40 2017


Gurobi 6.5.2 (linux64) logging started Sun Jun 11 17:00:40 2017


Gurobi 6.5.2 (linux64) logging started Sun Jun 11 17:00:41 2017


Gurobi 6.5.2 (linux64) logging started Sun Jun 11 17:00:42 2017


Gurobi 6.5.2 (linux64) logging started Sun Jun 11 17:00:42 2017


Gurobi 6.5.2 (linux64) logging started Sun Jun 11 17:00:43 2017


Gurobi 6.5.2 (linux64) logging started Sun Jun 11 17:00:43 2017


Gurobi 6.5.2 (linux64) logging started Sun Jun 11 17:00:44 2017


Gurobi 6.5.2 (linux64) logging started Sun Jun 11 17:00:45 2017


Gurobi 6.5.2 (linux64) logging started Sun Jun 11 17:00:45 2017


Gurobi 6.5.2 (linux64) logging started Sun Jun 11 17:00:46 2017


Gurobi 6.5.2 (linux64) logging started Sun Jun 11 17:00:47 2017


Gurobi 6.5.2 (linux64) logging started Sun Jun 11 17:00:47 2017


Gurobi 6.5.2 (linux64) logging started Sun Jun 11 17:00:48 2017


Gurobi 6.5.2 (linux64) logging started Sun Jun 11 17:00:48 2017


Gurobi 6.5.2 (linux64) logging started Sun Jun 11 17:00:49 2017


Gurobi 6.5.2 (linux64) logging started Sun Jun 11 17:00:50 2017


Gurobi 6.5.2 (linux64) logging started Sun Jun 11 17:00:50 2017


Gurobi 6.5.2 (linux64) logging started Sun Jun 11 17:00:51 2017


Gurobi 6.5.2 (linux64) logging started Sun Jun 11 17:00:52 2017


Gurobi 6.5.2 (linux64) logging started Sun Jun 11 17:00:52 2017


Gurobi 6.5.2 (linux64) logging started Sun Jun 11 17:00:53 2017


Gurobi 6.5.2 (linux64) logging started Sun Jun 11 17:00:54 2017


Gurobi 6.5.2 (linux64) logging started Sun Jun 11 17:00:54 2017


Gurobi 6.5.2 (linux64) logging started Sun Jun 11 17:00:55 2017


Gurobi 6.5.2 (linux64) logging started Sun Jun 11 17:00:56 2017


Gurobi 6.5.2 (linux64) logging started Sun Jun 11 17:00:56 2017


Gurobi 6.5.2 (linux64) logging started Sun Jun 11 17:00:57 2017


Gurobi 6.5.2 (linux64) logging started Sun Jun 11 17:00:58 2017


Gurobi 6.5.2 (linux64) logging started Sun Jun 11 17:00:59 2017


Gurobi 6.5.2 (linux64) logging started Sun Jun 11 17:01:00 2017


Gurobi 6.5.2 (linux64) logging started Sun Jun 11 17:01:00 2017


Gurobi 6.5.2 (linux64) logging started Sun Jun 11 17:01:01 2017


Gurobi 6.5.2 (linux64) logging started Sun Jun 11 17:01:01 2017


Gurobi 6.5.2 (linux64) logging started Sun Jun 11 17:01:02 2017


Gurobi 6.5.2 (linux64) logging started Sun Jun 11 17:01:02 2017


Gurobi 6.5.2 (linux64) logging started Sun Jun 11 17:01:03 2017


Gurobi 6.5.2 (linux64) logging started Sun Jun 11 17:01:04 2017


Gurobi 6.5.2 (linux64) logging started Sun Jun 11 17:01:04 2017


Gurobi 6.5.2 (linux64) logging started Sun Jun 11 17:01:05 2017


Gurobi 6.5.2 (linux64) logging started Sun Jun 11 17:01:05 2017


Gurobi 6.5.2 (linux64) logging started Sun Jun 11 17:01:06 2017


Gurobi 6.5.2 (linux64) logging started Sun Jun 11 17:01:07 2017


Gurobi 6.5.2 (linux64) logging started Sun Jun 11 17:01:08 2017


Gurobi 6.5.2 (linux64) logging started Sun Jun 11 17:01:09 2017


Gurobi 6.5.2 (linux64) logging started Sun Jun 11 17:01:09 2017


Gurobi 6.5.2 (linux64) logging started Sun Jun 11 17:01:10 2017


Gurobi 6.5.2 (linux64) logging started Sun Jun 11 17:01:10 2017


Gurobi 6.5.2 (linux64) logging started Sun Jun 11 17:01:11 2017


Gurobi 6.5.2 (linux64) logging started Sun Jun 11 17:01:12 2017


Gurobi 6.5.2 (linux64) logging started Sun Jun 11 17:01:12 2017


Gurobi 6.5.2 (linux64) logging started Sun Jun 11 17:01:13 2017


Gurobi 6.5.2 (linux64) logging started Sun Jun 11 17:01:14 2017


Gurobi 6.5.2 (linux64) logging started Sun Jun 11 17:01:15 2017


Gurobi 6.5.2 (linux64) logging started Sun Jun 11 17:01:15 2017


Gurobi 6.5.2 (linux64) logging started Sun Jun 11 17:01:16 2017


Gurobi 6.5.2 (linux64) logging started Sun Jun 11 17:01:17 2017


Gurobi 6.5.2 (linux64) logging started Sun Jun 11 17:01:17 2017


Gurobi 6.5.2 (linux64) logging started Sun Jun 11 17:01:18 2017


Gurobi 6.5.2 (linux64) logging started Sun Jun 11 17:01:19 2017


Gurobi 6.5.2 (linux64) logging started Sun Jun 11 17:01:19 2017


Gurobi 6.5.2 (linux64) logging started Sun Jun 11 17:01:20 2017


Gurobi 6.5.2 (linux64) logging started Sun Jun 11 17:01:21 2017


Gurobi 6.5.2 (linux64) logging started Sun Jun 11 17:01:21 2017


Gurobi 6.5.2 (linux64) logging started Sun Jun 11 17:01:22 2017


Gurobi 6.5.2 (linux64) logging started Sun Jun 11 17:01:23 2017


Gurobi 6.5.2 (linux64) logging started Sun Jun 11 17:01:23 2017


Gurobi 6.5.2 (linux64) logging started Sun Jun 11 17:01:24 2017


Gurobi 6.5.2 (linux64) logging started Sun Jun 11 17:01:25 2017


Gurobi 6.5.2 (linux64) logging started Sun Jun 11 17:01:25 2017


Gurobi 6.5.2 (linux64) logging started Sun Jun 11 17:01:26 2017


Gurobi 6.5.2 (linux64) logging started Sun Jun 11 17:01:27 2017


Gurobi 6.5.2 (linux64) logging started Sun Jun 11 17:01:27 2017


Gurobi 6.5.2 (linux64) logging started Sun Jun 11 17:01:27 2017


Gurobi 6.5.2 (linux64) logging started Sun Jun 11 17:01:27 2017


Gurobi 6.5.2 (linux64) logging started Sun Jun 11 17:01:28 2017


Gurobi 6.5.2 (linux64) logging started Sun Jun 11 17:01:28 2017


Gurobi 6.5.2 (linux64) logging started Sun Jun 11 17:01:28 2017


Gurobi 6.5.2 (linux64) logging started Sun Jun 11 17:01:29 2017


Gurobi 6.5.2 (linux64) logging started Sun Jun 11 17:01:30 2017


Gurobi 6.5.2 (linux64) logging started Sun Jun 11 17:01:35 2017


Gurobi 6.5.2 (linux64) logging started Sun Jun 11 17:01:36 2017


Gurobi 6.5.2 (linux64) logging started Sun Jun 11 17:01:37 2017


Gurobi 6.5.2 (linux64) logging started Sun Jun 11 17:01:37 2017


Gurobi 6.5.2 (linux64) logging started Sun Jun 11 17:01:38 2017


Gurobi 6.5.2 (linux64) logging started Sun Jun 11 17:01:38 2017


Gurobi 6.5.2 (linux64) logging started Sun Jun 11 17:01:39 2017


Gurobi 6.5.2 (linux64) logging started Sun Jun 11 17:01:40 2017


Gurobi 6.5.2 (linux64) logging started Sun Jun 11 17:01:40 2017


Gurobi 6.5.2 (linux64) logging started Sun Jun 11 17:01:41 2017


Gurobi 6.5.2 (linux64) logging started Sun Jun 11 17:01:41 2017


Gurobi 6.5.2 (linux64) logging started Sun Jun 11 17:01:42 2017


Gurobi 6.5.2 (linux64) logging started Sun Jun 11 17:01:42 2017


Gurobi 6.5.2 (linux64) logging started Sun Jun 11 17:01:43 2017


Gurobi 6.5.2 (linux64) logging started Sun Jun 11 17:01:44 2017


Gurobi 6.5.2 (linux64) logging started Sun Jun 11 17:01:44 2017


Gurobi 6.5.2 (linux64) logging started Sun Jun 11 17:01:45 2017


Gurobi 6.5.2 (linux64) logging started Sun Jun 11 17:01:45 2017


Gurobi 6.5.2 (linux64) logging started Sun Jun 11 17:01:46 2017


Gurobi 6.5.2 (linux64) logging started Sun Jun 11 17:01:47 2017


Gurobi 6.5.2 (linux64) logging started Sun Jun 11 17:01:47 2017


Gurobi 6.5.2 (linux64) logging started Sun Jun 11 17:01:48 2017


Gurobi 6.5.2 (linux64) logging started Sun Jun 11 17:01:49 2017


Gurobi 6.5.2 (linux64) logging started Sun Jun 11 17:01:49 2017


Gurobi 6.5.2 (linux64) logging started Sun Jun 11 17:01:50 2017


Gurobi 6.5.2 (linux64) logging started Sun Jun 11 17:01:50 2017


Gurobi 6.5.2 (linux64) logging started Sun Jun 11 17:01:51 2017


Gurobi 6.5.2 (linux64) logging started Sun Jun 11 17:01:51 2017


Gurobi 6.5.2 (linux64) logging started Sun Jun 11 17:01:52 2017


Gurobi 6.5.2 (linux64) logging started Sun Jun 11 17:01:53 2017


Gurobi 6.5.2 (linux64) logging started Sun Jun 11 17:01:53 2017


Gurobi 6.5.2 (linux64) logging started Sun Jun 11 17:01:54 2017


Gurobi 6.5.2 (linux64) logging started Sun Jun 11 17:02:02 2017


Gurobi 6.5.2 (linux64) logging started Sun Jun 11 17:02:07 2017


Gurobi 6.5.2 (linux64) logging started Sun Jun 11 17:02:08 2017


Gurobi 6.5.2 (linux64) logging started Sun Jun 11 17:02:08 2017


Gurobi 6.5.2 (linux64) logging started Sun Jun 11 17:02:15 2017


Gurobi 6.5.2 (linux64) logging started Sun Jun 11 17:02:20 2017


Gurobi 6.5.2 (linux64) logging started Sun Jun 11 17:02:22 2017


Gurobi 6.5.2 (linux64) logging started Sun Jun 11 17:02:24 2017


Gurobi 6.5.2 (linux64) logging started Sun Jun 11 17:02:29 2017


Gurobi 6.5.2 (linux64) logging started Sun Jun 11 17:02:31 2017


Gurobi 6.5.2 (linux64) logging started Sun Jun 11 18:12:20 2017


Gurobi 6.5.2 (linux64) logging started Sun Jun 11 18:14:52 2017


Gurobi 6.5.2 (linux64) logging started Sun Jun 11 18:15:01 2017


Gurobi 6.5.2 (linux64) logging started Sun Jun 11 18:18:22 2017


Gurobi 6.5.2 (linux64) logging started Sun Jun 11 18:18:52 2017


Gurobi 6.5.2 (linux64) logging started Wed Jun 14 11:03:17 2017


Gurobi 6.5.2 (linux64) logging started Wed Jun 14 11:03:33 2017


Gurobi 6.5.2 (linux64) logging started Wed Jun 14 12:45:14 2017


Gurobi 6.5.2 (linux64) logging started Wed Jun 14 12:46:43 2017


Gurobi 6.5.2 (linux64) logging started Wed Jun 14 12:49:58 2017


Gurobi 6.5.2 (linux64) logging started Wed Jun 14 12:52:21 2017


Gurobi 6.5.2 (linux64) logging started Wed Jun 14 12:53:15 2017


Gurobi 6.5.2 (linux64) logging started Wed Jun 14 12:56:37 2017


Gurobi 6.5.2 (linux64) logging started Wed Jun 14 12:56:49 2017


Gurobi 6.5.2 (linux64) logging started Wed Jun 14 12:58:48 2017


Gurobi 6.5.2 (linux64) logging started Wed Jun 14 13:04:05 2017


Gurobi 6.5.2 (linux64) logging started Wed Jun 14 13:05:12 2017


Gurobi 6.5.2 (linux64) logging started Wed Jun 14 13:16:36 2017


Gurobi 6.5.2 (linux64) logging started Wed Jun 14 13:17:00 2017


Gurobi 6.5.2 (linux64) logging started Wed Jun 14 13:21:57 2017


Gurobi 6.5.2 (linux64) logging started Wed Jun 14 13:23:00 2017


Gurobi 6.5.2 (linux64) logging started Wed Jun 14 13:23:06 2017


Gurobi 6.5.2 (linux64) logging started Wed Jun 14 13:23:44 2017


Gurobi 6.5.2 (linux64) logging started Wed Jun 14 13:23:46 2017


Gurobi 6.5.2 (linux64) logging started Wed Jun 14 13:23:55 2017


Gurobi 6.5.2 (linux64) logging started Wed Jun 14 13:31:46 2017


Gurobi 6.5.2 (linux64) logging started Wed Jun 14 13:41:12 2017


Gurobi 6.5.2 (linux64) logging started Wed Jun 14 13:43:08 2017


Gurobi 6.5.2 (linux64) logging started Wed Jun 14 13:45:59 2017


Gurobi 6.5.2 (linux64) logging started Wed Jun 14 13:57:08 2017


Gurobi 6.5.2 (linux64) logging started Wed Jun 14 13:58:57 2017


Gurobi 6.5.2 (linux64) logging started Wed Jun 14 13:59:16 2017


Gurobi 6.5.2 (linux64) logging started Wed Jun 14 13:59:18 2017


Gurobi 6.5.2 (linux64) logging started Wed Jun 14 13:59:19 2017


Gurobi 6.5.2 (linux64) logging started Wed Jun 14 13:59:20 2017


Gurobi 6.5.2 (linux64) logging started Wed Jun 14 13:59:21 2017


Gurobi 6.5.2 (linux64) logging started Wed Jun 14 13:59:21 2017


Gurobi 6.5.2 (linux64) logging started Wed Jun 14 13:59:23 2017


Gurobi 6.5.2 (linux64) logging started Wed Jun 14 13:59:26 2017


Gurobi 6.5.2 (linux64) logging started Wed Jun 14 14:02:13 2017


Gurobi 6.5.2 (linux64) logging started Wed Jun 14 14:03:09 2017


Gurobi 6.5.2 (linux64) logging started Wed Jun 14 14:25:18 2017


Gurobi 6.5.2 (linux64) logging started Wed Jun 14 14:35:02 2017


Gurobi 6.5.2 (linux64) logging started Wed Jun 14 14:40:38 2017


Gurobi 6.5.2 (linux64) logging started Wed Jun 14 14:41:13 2017


Gurobi 6.5.2 (linux64) logging started Wed Jun 14 14:47:08 2017


Gurobi 6.5.2 (linux64) logging started Wed Jun 14 19:39:02 2017


Gurobi 6.5.2 (linux64) logging started Wed Jun 14 19:40:07 2017


Gurobi 6.5.2 (linux64) logging started Wed Jun 14 19:41:15 2017


Gurobi 6.5.2 (linux64) logging started Wed Jun 14 19:42:41 2017


Gurobi 6.5.2 (linux64) logging started Wed Jun 14 19:42:50 2017


Gurobi 6.5.2 (linux64) logging started Wed Jun 14 19:43:14 2017


Gurobi 6.5.2 (linux64) logging started Wed Jun 14 19:43:45 2017


Gurobi 6.5.2 (linux64) logging started Wed Jun 14 19:43:57 2017


Gurobi 6.5.2 (linux64) logging started Wed Jun 14 19:44:03 2017


Gurobi 6.5.2 (linux64) logging started Wed Jun 14 19:44:46 2017


Gurobi 6.5.2 (linux64) logging started Wed Jun 14 19:44:57 2017


Gurobi 6.5.2 (linux64) logging started Wed Jun 14 19:45:18 2017


Gurobi 6.5.2 (linux64) logging started Wed Jun 14 19:47:06 2017


Gurobi 6.5.2 (linux64) logging started Wed Jun 14 19:47:40 2017


Gurobi 6.5.2 (linux64) logging started Wed Jun 14 19:50:22 2017


Gurobi 6.5.2 (linux64) logging started Wed Jun 14 19:50:32 2017


Gurobi 6.5.2 (linux64) logging started Wed Jun 14 19:52:19 2017


Gurobi 6.5.2 (linux64) logging started Wed Jun 14 19:52:47 2017


Gurobi 6.5.2 (linux64) logging started Wed Jun 14 19:54:34 2017


Gurobi 6.5.2 (linux64) logging started Wed Jun 14 19:56:39 2017


Gurobi 6.5.2 (linux64) logging started Wed Jun 14 19:59:48 2017


Gurobi 6.5.2 (linux64) logging started Wed Jun 14 19:59:55 2017


Gurobi 6.5.2 (linux64) logging started Wed Jun 14 19:59:59 2017


Gurobi 6.5.2 (linux64) logging started Wed Jun 14 20:00:04 2017


Gurobi 6.5.2 (linux64) logging started Wed Jun 14 20:00:44 2017


Gurobi 6.5.2 (linux64) logging started Wed Jun 14 20:00:51 2017


Gurobi 6.5.2 (linux64) logging started Wed Jun 14 20:01:10 2017


Gurobi 6.5.2 (linux64) logging started Wed Jun 14 20:01:20 2017


Gurobi 6.5.2 (linux64) logging started Wed Jun 14 20:02:47 2017


Gurobi 6.5.2 (linux64) logging started Wed Jun 14 20:12:17 2017


Gurobi 6.5.2 (linux64) logging started Wed Jun 14 20:18:45 2017


Gurobi 6.5.2 (linux64) logging started Wed Jun 14 20:20:43 2017


Gurobi 6.5.2 (linux64) logging started Wed Jun 14 20:21:08 2017


Gurobi 6.5.2 (linux64) logging started Wed Jun 14 20:22:09 2017


Gurobi 6.5.2 (linux64) logging started Wed Jun 14 20:24:03 2017


Gurobi 6.5.2 (linux64) logging started Wed Jun 14 20:24:15 2017


Gurobi 6.5.2 (linux64) logging started Wed Jun 14 20:31:18 2017


Gurobi 6.5.2 (linux64) logging started Wed Jun 14 20:31:25 2017


Gurobi 6.5.2 (linux64) logging started Wed Jun 14 20:32:22 2017


Gurobi 6.5.2 (linux64) logging started Wed Jun 14 20:45:42 2017


Gurobi 6.5.2 (linux64) logging started Wed Jun 14 20:45:47 2017


Gurobi 6.5.2 (linux64) logging started Wed Jun 14 20:46:12 2017


Gurobi 6.5.2 (linux64) logging started Wed Jun 14 20:46:31 2017


Gurobi 6.5.2 (linux64) logging started Wed Jun 14 20:47:06 2017


Gurobi 6.5.2 (linux64) logging started Wed Jun 14 20:48:52 2017


Gurobi 6.5.2 (linux64) logging started Wed Jun 14 20:49:09 2017


Gurobi 6.5.2 (linux64) logging started Wed Jun 14 20:50:04 2017


Gurobi 6.5.2 (linux64) logging started Wed Jun 14 20:51:37 2017


Gurobi 6.5.2 (linux64) logging started Wed Jun 14 20:57:56 2017


Gurobi 6.5.2 (linux64) logging started Wed Jun 14 20:58:00 2017


Gurobi 6.5.2 (linux64) logging started Wed Jun 14 21:01:10 2017

Warning for adding constraints: zero or small (< 1e-13) coefficients, ignored
Warning for adding constraints: zero or small (< 1e-13) coefficients, ignored
Warning for adding constraints: zero or small (< 1e-13) coefficients, ignored
Warning for adding constraints: zero or small (< 1e-13) coefficients, ignored
Warning for adding constraints: zero or small (< 1e-13) coefficients, ignored
Warning for adding constraints: zero or small (< 1e-13) coefficients, ignored
Warning for adding constraints: zero or small (< 1e-13) coefficients, ignored
Warning for adding constraints: zero or small (< 1e-13) coefficients, ignored
Warning for adding constraints: zero or small (< 1e-13) coefficients, ignored
Warning for adding constraints: zero or small (< 1e-13) coefficients, ignored
Warning for adding constraints: zero or small (< 1e-13) coefficients, ignored
Warning for adding constraints: zero or small (< 1e-13) coefficients, ignored
Warning for adding constraints: zero or small (< 1e-13) coefficients, ignored
Warning for adding constraints: zero or small (< 1e-13) coefficients, ignored
Warning for adding constraints: zero or small (< 1e-13) coefficients, ignored
Warning for adding constraints: zero or small (< 1e-13) coefficients, ignored
Warning for adding constraints: zero or small (< 1e-13) coefficients, ignored
Warning for adding constraints: zero or small (< 1e-13) coefficients, ignored
Warning for adding constraints: zero or small (< 1e-13) coefficients, ignored
Warning for adding constraints: zero or small (< 1e-13) coefficients, ignored
Warning for adding constraints: zero or small (< 1e-13) coefficients, ignored
Warning for adding constraints: zero or small (< 1e-13) coefficients, ignored
Warning for adding constraints: zero or small (< 1e-13) coefficients, ignored
Warning for adding constraints: zero or small (< 1e-13) coefficients, ignored

Gurobi 6.5.2 (linux64) logging started Wed Jun 14 21:02:11 2017


Gurobi 6.5.2 (linux64) logging started Wed Jun 14 21:02:17 2017

Warning for adding constraints: zero or small (< 1e-13) coefficients, ignored
Warning for adding constraints: zero or small (< 1e-13) coefficients, ignored
Warning for adding constraints: zero or small (< 1e-13) coefficients, ignored
Warning for adding constraints: zero or small (< 1e-13) coefficients, ignored
Warning for adding constraints: zero or small (< 1e-13) coefficients, ignored
Warning for adding constraints: zero or small (< 1e-13) coefficients, ignored
Warning for adding constraints: zero or small (< 1e-13) coefficients, ignored
Warning for adding constraints: zero or small (< 1e-13) coefficients, ignored
Warning for adding constraints: zero or small (< 1e-13) coefficients, ignored
Warning for adding constraints: zero or small (< 1e-13) coefficients, ignored
Warning for adding constraints: zero or small (< 1e-13) coefficients, ignored
Warning for adding constraints: zero or small (< 1e-13) coefficients, ignored
Warning for adding constraints: zero or small (< 1e-13) coefficients, ignored
Warning for adding constraints: zero or small (< 1e-13) coefficients, ignored
Warning for adding constraints: zero or small (< 1e-13) coefficients, ignored
Warning for adding constraints: zero or small (< 1e-13) coefficients, ignored
Warning for adding constraints: zero or small (< 1e-13) coefficients, ignored
Warning for adding constraints: zero or small (< 1e-13) coefficients, ignored
Warning for adding constraints: zero or small (< 1e-13) coefficients, ignored
Warning for adding constraints: zero or small (< 1e-13) coefficients, ignored
Warning for adding constraints: zero or small (< 1e-13) coefficients, ignored
Warning for adding constraints: zero or small (< 1e-13) coefficients, ignored
Warning for adding constraints: zero or small (< 1e-13) coefficients, ignored
Warning for adding constraints: zero or small (< 1e-13) coefficients, ignored

Gurobi 6.5.2 (linux64) logging started Wed Jun 14 21:03:09 2017


Gurobi 6.5.2 (linux64) logging started Wed Jun 14 21:03:17 2017


Gurobi 6.5.2 (linux64) logging started Wed Jun 14 21:04:02 2017


Gurobi 6.5.2 (linux64) logging started Wed Jun 14 21:04:29 2017


Gurobi 6.5.2 (linux64) logging started Wed Jun 14 21:05:14 2017


Gurobi 6.5.2 (linux64) logging started Wed Jun 14 22:29:26 2017

